<number of tasks>
250

<cycle time>
1000

<order strength>
0.277


<task times>
1 203
2 71
3 108
4 59
5 65
6 191
7 133
8 228
9 222
10 138
11 58
12 321
13 39
14 250
15 144
16 122
17 64
18 84
19 102
20 244
21 103
22 280
23 76
24 55
25 93
26 40
27 90
28 119
29 272
30 115
31 158
32 67
33 81
34 182
35 138
36 65
37 24
38 117
39 291
40 44
41 171
42 157
43 89
44 68
45 125
46 183
47 51
48 45
49 155
50 101
51 119
52 98
53 92
54 222
55 158
56 197
57 75
58 85
59 161
60 240
61 25
62 93
63 156
64 93
65 213
66 117
67 241
68 115
69 275
70 35
71 48
72 75
73 134
74 166
75 57
76 142
77 40
78 143
79 27
80 197
81 31
82 64
83 82
84 71
85 102
86 301
87 84
88 150
89 46
90 177
91 251
92 361
93 96
94 170
95 225
96 54
97 78
98 214
99 98
100 190
101 159
102 105
103 88
104 97
105 361
106 92
107 111
108 65
109 114
110 144
111 256
112 107
113 65
114 205
115 86
116 172
117 183
118 117
119 98
120 84
121 125
122 62
123 127
124 97
125 36
126 180
127 48
128 123
129 177
130 158
131 110
132 45
133 174
134 88
135 122
136 110
137 212
138 274
139 155
140 156
141 33
142 126
143 196
144 157
145 160
146 176
147 235
148 158
149 40
150 193
151 180
152 185
153 111
154 327
155 100
156 124
157 77
158 175
159 178
160 98
161 25
162 173
163 103
164 98
165 114
166 59
167 145
168 50
169 77
170 28
171 99
172 226
173 60
174 194
175 265
176 161
177 103
178 88
179 80
180 211
181 106
182 94
183 256
184 121
185 244
186 100
187 100
188 264
189 268
190 188
191 196
192 286
193 46
194 45
195 86
196 238
197 118
198 179
199 66
200 51
201 63
202 56
203 280
204 128
205 59
206 41
207 320
208 117
209 23
210 163
211 127
212 98
213 166
214 47
215 239
216 71
217 94
218 132
219 117
220 74
221 58
222 100
223 95
224 312
225 143
226 81
227 124
228 110
229 266
230 101
231 181
232 161
233 88
234 99
235 135
236 33
237 155
238 126
239 110
240 118
241 112
242 182
243 220
244 158
245 27
246 196
247 97
248 34
249 53
250 179

<precedence relations>
1,110
2,110
3,147
4,86
5,86
6,52
7,52
8,19
9,13
9,14
9,16
9,17
9,18
9,21
10,15
12,20
12,22
13,47
14,47
15,110
16,86
17,52
18,52
19,23
20,24
20,33
21,30
21,32
21,34
21,35
21,36
22,25
22,26
22,27
22,28
22,29
22,31
23,47
24,47
25,110
26,147
27,147
28,52
29,52
30,52
31,52
32,52
33,42
33,43
33,44
33,45
34,39
34,40
35,37
35,41
36,38
36,46
37,47
38,52
39,52
40,52
41,52
42,53
43,55
44,50
44,54
45,48
45,49
45,51
46,56
46,57
46,58
46,59
46,60
46,61
46,62
47,63
47,64
47,65
47,66
48,110
49,147
50,147
51,215
52,68
52,69
52,70
52,71
52,72
52,73
52,74
53,67
54,79
55,80
56,75
56,76
57,77
57,81
58,78
59,82
63,110
64,91
67,86
68,86
73,84
73,94
74,92
75,87
76,88
77,89
78,90
79,93
80,83
82,85
83,147
84,147
85,147
86,98
86,99
86,100
86,101
86,102
86,103
86,108
87,95
88,95
89,107
90,105
91,106
92,97
92,104
92,109
94,96
95,110
96,110
97,147
98,215
99,113
100,115
101,111
102,117
104,112
105,114
106,116
110,118
110,119
110,120
110,121
110,122
110,123
110,124
110,125
110,126
110,127
110,128
110,129
110,130
110,131
110,132
110,133
110,134
110,135
110,136
110,137
110,138
110,139
110,140
110,141
110,142
110,143
110,144
110,145
110,146
111,147
112,148
113,149
113,151
115,150
122,164
134,160
136,162
137,161
139,163
147,152
147,153
147,154
147,155
147,156
148,158
149,157
150,159
152,166
152,173
156,171
156,172
157,170
158,167
159,170
160,165
161,168
162,169
165,174
166,175
167,179
168,176
169,177
170,178
170,182
170,183
171,180
172,181
172,184
174,185
175,187
176,191
177,189
178,186
178,192
180,188
180,193
181,190
185,194
186,195
187,194
188,196
189,199
190,197
192,198
192,200
194,215
195,202
196,203
197,204
198,201
198,206
199,205
201,209
202,211
203,208
203,214
204,212
204,213
205,207
205,210
207,215
208,215
209,217
210,216
210,221
211,218
211,219
213,220
215,222
215,223
215,224
215,225
215,226
215,227
215,228
215,229
215,230
215,231
215,232
215,233
215,234
215,235
216,238
217,237
217,239
217,240
218,236
236,241
237,242
238,244
239,243
241,246
242,245
243,247
244,248
244,249
244,250

<end>
